c Modular CNF with 4 modules
c Generated CNF instance
p cnf 40 640
7 2 10 0
7 2 -10 0
7 -2 10 0
-7 2 10 0
6 2 8 0
6 2 -8 0
6 -2 8 0
-6 2 8 0
3 9 7 0
3 9 -7 0
3 -9 7 0
-3 9 7 0
3 4 9 0
3 4 -9 0
3 -4 9 0
-3 4 9 0
6 8 4 0
6 8 -4 0
6 -8 4 0
-6 8 4 0
6 4 8 0
6 4 -8 0
6 -4 8 0
-6 4 8 0
3 1 8 0
3 1 -8 0
3 -1 8 0
-3 1 8 0
3 8 7 0
3 8 -7 0
3 -8 7 0
-3 8 7 0
4 1 8 0
4 1 -8 0
4 -1 8 0
-4 1 8 0
4 9 3 0
4 9 -3 0
4 -9 3 0
-4 9 3 0
2 5 3 0
2 5 -3 0
2 -5 3 0
-2 5 3 0
5 2 1 0
5 2 -1 0
5 -2 1 0
-5 2 1 0
6 1 5 0
6 1 -5 0
6 -1 5 0
-6 1 5 0
5 9 2 0
5 9 -2 0
5 -9 2 0
-5 9 2 0
4 5 7 0
4 5 -7 0
4 -5 7 0
-4 5 7 0
6 4 9 0
6 4 -9 0
6 -4 9 0
-6 4 9 0
6 8 2 0
6 8 -2 0
6 -8 2 0
-6 8 2 0
5 7 8 0
5 7 -8 0
5 -7 8 0
-5 7 8 0
6 8 5 0
6 8 -5 0
6 -8 5 0
-6 8 5 0
8 6 1 0
8 6 -1 0
8 -6 1 0
-8 6 1 0
1 3 8 0
1 3 -8 0
1 -3 8 0
-1 3 8 0
2 4 5 0
2 4 -5 0
2 -4 5 0
-2 4 5 0
1 6 3 0
1 6 -3 0
1 -6 3 0
-1 6 3 0
4 3 6 0
4 3 -6 0
4 -3 6 0
-4 3 6 0
6 10 5 0
6 10 -5 0
6 -10 5 0
-6 10 5 0
8 4 7 0
8 4 -7 0
8 -4 7 0
-8 4 7 0
2 4 9 0
2 4 -9 0
2 -4 9 0
-2 4 9 0
5 10 7 0
5 10 -7 0
5 -10 7 0
-5 10 7 0
6 1 3 0
6 1 -3 0
6 -1 3 0
-6 1 3 0
2 8 7 0
2 8 -7 0
2 -8 7 0
-2 8 7 0
10 8 7 0
10 8 -7 0
10 -8 7 0
-10 8 7 0
7 9 1 0
7 9 -1 0
7 -9 1 0
-7 9 1 0
5 1 9 0
5 1 -9 0
5 -1 9 0
-5 1 9 0
4 10 2 0
4 10 -2 0
4 -10 2 0
-4 10 2 0
6 4 3 0
6 4 -3 0
6 -4 3 0
-6 4 3 0
2 10 3 0
2 10 -3 0
2 -10 3 0
-2 10 3 0
9 5 4 0
9 5 -4 0
9 -5 4 0
-9 5 4 0
9 6 2 0
9 6 -2 0
9 -6 2 0
-9 6 2 0
4 1 3 0
4 1 -3 0
4 -1 3 0
-4 1 3 0
3 6 10 0
3 6 -10 0
3 -6 10 0
-3 6 10 0
12 18 15 0
12 18 -15 0
12 -18 15 0
-12 18 15 0
14 20 15 0
14 20 -15 0
14 -20 15 0
-14 20 15 0
20 11 19 0
20 11 -19 0
20 -11 19 0
-20 11 19 0
14 13 18 0
14 13 -18 0
14 -13 18 0
-14 13 18 0
14 18 13 0
14 18 -13 0
14 -18 13 0
-14 18 13 0
15 19 17 0
15 19 -17 0
15 -19 17 0
-15 19 17 0
11 20 18 0
11 20 -18 0
11 -20 18 0
-11 20 18 0
20 11 17 0
20 11 -17 0
20 -11 17 0
-20 11 17 0
12 18 15 0
12 18 -15 0
12 -18 15 0
-12 18 15 0
14 11 17 0
14 11 -17 0
14 -11 17 0
-14 11 17 0
12 15 14 0
12 15 -14 0
12 -15 14 0
-12 15 14 0
16 14 20 0
16 14 -20 0
16 -14 20 0
-16 14 20 0
14 11 20 0
14 11 -20 0
14 -11 20 0
-14 11 20 0
20 13 11 0
20 13 -11 0
20 -13 11 0
-20 13 11 0
19 18 20 0
19 18 -20 0
19 -18 20 0
-19 18 20 0
13 20 17 0
13 20 -17 0
13 -20 17 0
-13 20 17 0
17 14 19 0
17 14 -19 0
17 -14 19 0
-17 14 19 0
16 12 15 0
16 12 -15 0
16 -12 15 0
-16 12 15 0
16 17 20 0
16 17 -20 0
16 -17 20 0
-16 17 20 0
18 17 14 0
18 17 -14 0
18 -17 14 0
-18 17 14 0
13 20 15 0
13 20 -15 0
13 -20 15 0
-13 20 15 0
17 15 12 0
17 15 -12 0
17 -15 12 0
-17 15 12 0
15 13 18 0
15 13 -18 0
15 -13 18 0
-15 13 18 0
17 13 18 0
17 13 -18 0
17 -13 18 0
-17 13 18 0
14 15 19 0
14 15 -19 0
14 -15 19 0
-14 15 19 0
19 12 16 0
19 12 -16 0
19 -12 16 0
-19 12 16 0
19 20 12 0
19 20 -12 0
19 -20 12 0
-19 20 12 0
13 20 18 0
13 20 -18 0
13 -20 18 0
-13 20 18 0
18 19 13 0
18 19 -13 0
18 -19 13 0
-18 19 13 0
14 13 17 0
14 13 -17 0
14 -13 17 0
-14 13 17 0
17 11 15 0
17 11 -15 0
17 -11 15 0
-17 11 15 0
12 20 17 0
12 20 -17 0
12 -20 17 0
-12 20 17 0
19 20 14 0
19 20 -14 0
19 -20 14 0
-19 20 14 0
18 16 17 0
18 16 -17 0
18 -16 17 0
-18 16 17 0
19 20 17 0
19 20 -17 0
19 -20 17 0
-19 20 17 0
18 11 20 0
18 11 -20 0
18 -11 20 0
-18 11 20 0
15 18 20 0
15 18 -20 0
15 -18 20 0
-15 18 20 0
14 20 12 0
14 20 -12 0
14 -20 12 0
-14 20 12 0
20 11 19 0
20 11 -19 0
20 -11 19 0
-20 11 19 0
15 13 11 0
15 13 -11 0
15 -13 11 0
-15 13 11 0
21 24 28 0
21 24 -28 0
21 -24 28 0
-21 24 28 0
29 24 28 0
29 24 -28 0
29 -24 28 0
-29 24 28 0
25 30 24 0
25 30 -24 0
25 -30 24 0
-25 30 24 0
22 28 27 0
22 28 -27 0
22 -28 27 0
-22 28 27 0
26 24 23 0
26 24 -23 0
26 -24 23 0
-26 24 23 0
21 24 29 0
21 24 -29 0
21 -24 29 0
-21 24 29 0
27 28 30 0
27 28 -30 0
27 -28 30 0
-27 28 30 0
21 26 25 0
21 26 -25 0
21 -26 25 0
-21 26 25 0
24 30 26 0
24 30 -26 0
24 -30 26 0
-24 30 26 0
22 29 23 0
22 29 -23 0
22 -29 23 0
-22 29 23 0
27 29 21 0
27 29 -21 0
27 -29 21 0
-27 29 21 0
28 23 26 0
28 23 -26 0
28 -23 26 0
-28 23 26 0
22 27 28 0
22 27 -28 0
22 -27 28 0
-22 27 28 0
24 23 25 0
24 23 -25 0
24 -23 25 0
-24 23 25 0
22 21 28 0
22 21 -28 0
22 -21 28 0
-22 21 28 0
26 28 21 0
26 28 -21 0
26 -28 21 0
-26 28 21 0
26 28 21 0
26 28 -21 0
26 -28 21 0
-26 28 21 0
23 27 29 0
23 27 -29 0
23 -27 29 0
-23 27 29 0
24 23 29 0
24 23 -29 0
24 -23 29 0
-24 23 29 0
22 26 29 0
22 26 -29 0
22 -26 29 0
-22 26 29 0
22 26 29 0
22 26 -29 0
22 -26 29 0
-22 26 29 0
24 21 27 0
24 21 -27 0
24 -21 27 0
-24 21 27 0
29 28 30 0
29 28 -30 0
29 -28 30 0
-29 28 30 0
29 26 21 0
29 26 -21 0
29 -26 21 0
-29 26 21 0
27 23 21 0
27 23 -21 0
27 -23 21 0
-27 23 21 0
30 23 26 0
30 23 -26 0
30 -23 26 0
-30 23 26 0
29 23 21 0
29 23 -21 0
29 -23 21 0
-29 23 21 0
30 26 27 0
30 26 -27 0
30 -26 27 0
-30 26 27 0
26 24 29 0
26 24 -29 0
26 -24 29 0
-26 24 29 0
26 23 28 0
26 23 -28 0
26 -23 28 0
-26 23 28 0
29 21 26 0
29 21 -26 0
29 -21 26 0
-29 21 26 0
23 30 24 0
23 30 -24 0
23 -30 24 0
-23 30 24 0
25 23 30 0
25 23 -30 0
25 -23 30 0
-25 23 30 0
24 27 30 0
24 27 -30 0
24 -27 30 0
-24 27 30 0
29 24 25 0
29 24 -25 0
29 -24 25 0
-29 24 25 0
26 25 24 0
26 25 -24 0
26 -25 24 0
-26 25 24 0
30 27 22 0
30 27 -22 0
30 -27 22 0
-30 27 22 0
26 30 23 0
26 30 -23 0
26 -30 23 0
-26 30 23 0
30 26 29 0
30 26 -29 0
30 -26 29 0
-30 26 29 0
30 29 24 0
30 29 -24 0
30 -29 24 0
-30 29 24 0
40 39 35 0
40 39 -35 0
40 -39 35 0
-40 39 35 0
40 33 36 0
40 33 -36 0
40 -33 36 0
-40 33 36 0
37 35 32 0
37 35 -32 0
37 -35 32 0
-37 35 32 0
40 32 36 0
40 32 -36 0
40 -32 36 0
-40 32 36 0
34 36 40 0
34 36 -40 0
34 -36 40 0
-34 36 40 0
38 33 40 0
38 33 -40 0
38 -33 40 0
-38 33 40 0
39 36 34 0
39 36 -34 0
39 -36 34 0
-39 36 34 0
35 39 33 0
35 39 -33 0
35 -39 33 0
-35 39 33 0
40 34 35 0
40 34 -35 0
40 -34 35 0
-40 34 35 0
34 32 36 0
34 32 -36 0
34 -32 36 0
-34 32 36 0
32 34 33 0
32 34 -33 0
32 -34 33 0
-32 34 33 0
39 32 37 0
39 32 -37 0
39 -32 37 0
-39 32 37 0
40 35 31 0
40 35 -31 0
40 -35 31 0
-40 35 31 0
31 37 38 0
31 37 -38 0
31 -37 38 0
-31 37 38 0
39 32 33 0
39 32 -33 0
39 -32 33 0
-39 32 33 0
34 31 37 0
34 31 -37 0
34 -31 37 0
-34 31 37 0
33 32 37 0
33 32 -37 0
33 -32 37 0
-33 32 37 0
32 38 34 0
32 38 -34 0
32 -38 34 0
-32 38 34 0
37 39 36 0
37 39 -36 0
37 -39 36 0
-37 39 36 0
38 34 36 0
38 34 -36 0
38 -34 36 0
-38 34 36 0
39 36 31 0
39 36 -31 0
39 -36 31 0
-39 36 31 0
31 38 40 0
31 38 -40 0
31 -38 40 0
-31 38 40 0
37 36 38 0
37 36 -38 0
37 -36 38 0
-37 36 38 0
35 38 33 0
35 38 -33 0
35 -38 33 0
-35 38 33 0
38 34 33 0
38 34 -33 0
38 -34 33 0
-38 34 33 0
31 33 34 0
31 33 -34 0
31 -33 34 0
-31 33 34 0
32 38 33 0
32 38 -33 0
32 -38 33 0
-32 38 33 0
31 37 39 0
31 37 -39 0
31 -37 39 0
-31 37 39 0
34 37 35 0
34 37 -35 0
34 -37 35 0
-34 37 35 0
35 33 39 0
35 33 -39 0
35 -33 39 0
-35 33 39 0
40 34 32 0
40 34 -32 0
40 -34 32 0
-40 34 32 0
34 33 37 0
34 33 -37 0
34 -33 37 0
-34 33 37 0
39 35 40 0
39 35 -40 0
39 -35 40 0
-39 35 40 0
33 34 35 0
33 34 -35 0
33 -34 35 0
-33 34 35 0
32 38 31 0
32 38 -31 0
32 -38 31 0
-32 38 31 0
38 36 40 0
38 36 -40 0
38 -36 40 0
-38 36 40 0
33 35 37 0
33 35 -37 0
33 -35 37 0
-33 35 37 0
38 32 40 0
38 32 -40 0
38 -32 40 0
-38 32 40 0
31 32 40 0
31 32 -40 0
31 -32 40 0
-31 32 40 0
31 39 32 0
31 39 -32 0
31 -39 32 0
-31 39 32 0
